\ Model vert
\ LP format - for model browsing. Use MPS format to capture full model detail.
Minimize
  152653.6026307256 S_coef + 53197.64591126877 Constant + [ 219024 S_coef ^2
   ] / 2 
Subject To
Bounds
 -1000 <= S_coef <= 1000
 Constant = 1
End
